NAME : instance_4_200
TYPE : TSP
DIMENSION : 4
EDGE_WEIGHT_TYPE : EUC_2D
LOWER : 0
UPPER : 100
NODE_COORD_SECTION
1 54.2211570079 36.2562953494
2 20.9588138387 18.0331354029
3 31.3744232291 21.2855586782
4 31.6242128145 74.8197701992
EOF
